site/input/auxiliary/CO2_RCP60.rcp
1951  313
1952  313
1953  314
1954  314
1955  315
1956  315
1957  315
1958  316
1959  316
1960  317
1961  317
1962  318
1963  318
1964  319
1965  320
1966  321
1967  322
1968  323
1969  324
1970  325
1971  326
1972  327
1973  329
1974  330
1975  331
1976  332
1977  333
1978  335
1979  337
1980  338
1981  340
1982  341
1983  342
1984  344
1985  345
1986  347
1987  349
1988  351
1989  352
1990  354
1991  355
1992  356
1993  357
1994  358
1995  360
1996  361
1997  363
1998  365
1999  367
2000  369
2001  370
2002  373
2003  375
2004  377
2005  379
2006  381
2007  383
2008  385
2009  387
2010  389
2011  391
2012  393
2013  395
2014  397
2015  399
2016  401
2017  403
2018  405
2019  407
2020  409
2021  411
2022  413
2023  415
2024  417
2025  419
2026  421
2027  423
2028  425
2029  427
2030  429
2031  431
2032  433
2033  435
2034  437
2035  439
2036  441
2037  444
2038  446
2039  448
2040  451
2041  453
2042  456
2043  458
2044  461
2045  463
2046  466
2047  469
2048  472
2049  475
2050  478
2051  481
2052  484
2053  487
2054  490
2055  493
2056  497
2057  500
2058  503
2059  507
2060  511
2061  514
2062  518
2063  522
2064  526
2065  529
2066  533
2067  537
2068  541
2069  546
2070  550
2071  554
2072  558
2073  563
2074  567
2075  572
2076  576
2077  581
2078  585
2079  590
2080  594
2081  599
2082  604
2083  608
2084  612
2085  617
2086  621
2087  625
2088  628
2089  632
2090  636
2091  639
2092  643
2093  646
2094  650
2095  653
2096  656
2097  660
2098  663
2099  666
2100  670
