inst/defaultDir/input/auxiliary/CO2_RCP60.txt
1951  311.1
1952  311.5
1953  311.9
1954  312.4
1955  313.0
1956  313.6
1957  314.2
1958  314.9
1959  316.0
1960  316.9
1961  317.6
1962  318.5
1963  319.0
1964  319.6
1965  320.0
1966  321.4
1967  322.2
1968  323.0
1969  324.6
1970  325.7
1971  326.3
1972  327.5
1973  329.7
1974  330.2
1975  331.1
1976  332.0
1977  333.8
1978  335.4
1979  336.8
1980  338.8
1981  340.1
1982  341.5
1983  343.1
1984  344.7
1985  346.1
1986  347.4
1987  349.2
1988  351.6
1989  353.1
1990  354.4
1991  355.6
1992  356.5
1993  357.1
1994  358.8
1995  360.8
1996  362.6
1997  363.7
1998  366.7
1999  368.4
2000  369.6
2001  371.1
2002  373.3
2003  375.8
2004  377.5
2005  379.8
2006  381.9
2007  383.8
2008  385.6
2009  387.4
2010  389.9
2011  391.7
2012  393.9
2013  396.5
2014  398.7
2015  400.8
2016  404.2
2017  406.6
2018  408.5
2019  409
2020  410
2021  411
2022  413
2023  415
2024  417
2025  419
2026  421
2027  423
2028  425
2029  427
2030  429
2031  431
2032  433
2033  435
2034  437
2035  439
2036  441
2037  444
2038  446
2039  448
2040  451
2041  453
2042  456
2043  458
2044  461
2045  463
2046  466
2047  469
2048  472
2049  475
2050  478
2051  481
2052  484
2053  487
2054  490
2055  493
2056  497
2057  500
2058  503
2059  507
2060  511
2061  514
2062  518
2063  522
2064  526
2065  529
2066  533
2067  537
2068  541
2069  546
2070  550
2071  554
2072  558
2073  563
2074  567
2075  572
2076  576
2077  581
2078  585
2079  590
2080  594
2081  599
2082  604
2083  608
2084  612
2085  617
2086  621
2087  625
2088  628
2089  632
2090  636
2091  639
2092  643
2093  646
2094  650
2095  653
2096  656
2097  660
2098  663
2099  666
2100  670
